702 5
10 10 10 10 10 

0 0 0 0 0 0 5 2 54 106 158 210 
0 0 0 0 0 0 5 3 4 5 7 16 
9 1 3 6 4 2 2 15 6 
9 10 5 5 10 10 3 18 10 8 
5 6 10 6 5 8 3 18 15 8 
10 7 9 10 10 6 4 18 12 10 9 
6 10 9 8 8 3 3 18 10 9 
5 7 5 6 6 7 4 13 12 11 9 
9 10 9 10 5 2 4 31 19 17 14 
9 8 10 6 7 5 3 21 13 11 
8 7 10 10 7 10 4 31 24 23 19 
7 8 6 10 9 7 3 31 23 17 
8 8 8 7 6 10 4 31 24 22 20 
3 10 8 6 9 6 3 23 21 20 
1 6 6 5 9 9 3 31 24 19 
10 10 7 8 9 8 2 31 17 
6 8 7 10 10 10 2 24 20 
3 8 9 6 6 9 1 19 
10 10 7 10 4 10 2 27 22 
3 2 6 7 9 7 4 29 28 27 25 
7 6 9 5 10 6 1 22 
8 10 3 6 5 7 3 29 28 25 
7 5 8 8 9 3 4 35 29 27 26 
3 7 6 10 8 10 3 35 29 27 
9 4 10 5 5 10 2 35 26 
8 9 10 10 7 7 3 34 33 30 
1 5 2 5 7 10 3 34 33 30 
8 9 10 6 7 5 3 38 35 30 
4 9 7 8 3 6 3 38 37 32 
8 10 6 5 7 10 2 37 32 
8 6 9 8 10 7 6 52 41 40 39 38 37 
6 9 8 4 9 5 5 52 51 40 39 36 
10 10 10 10 10 10 4 40 38 37 36 
8 6 7 8 6 10 4 52 39 37 36 
5 3 8 8 6 10 4 51 39 37 36 
6 5 10 8 9 7 8 49 48 47 45 44 43 42 41 
9 8 8 10 7 6 4 49 45 44 42 
8 7 10 7 5 8 4 51 48 43 42 
3 8 9 10 10 9 3 46 45 44 
10 4 5 7 5 7 3 47 43 42 
2 7 10 8 5 8 2 50 46 
4 10 10 8 7 10 1 53 
1 10 9 7 9 7 1 53 
5 10 4 7 8 8 2 53 445 
7 9 3 7 8 9 1 53 
1 6 6 7 10 8 1 53 
8 4 5 10 7 10 1 53 
6 9 7 8 5 9 1 53 
2 10 8 5 10 6 1 53 
7 9 9 10 10 5 1 53 
3 9 7 7 9 6 1 53 
6 6 8 7 9 7 1 53 
0 0 0 0 0 0 1 702 
0 0 0 0 0 0 5 55 56 57 59 68 
10 4 3 4 2 2 2 67 58 
5 5 10 10 5 10 3 69 62 60 
3 5 6 6 8 8 3 69 67 60 
2 6 9 4 7 10 4 69 63 62 61 
5 6 8 10 8 6 3 69 62 61 
5 6 9 7 10 9 4 65 64 63 61 
3 5 4 7 8 10 4 81 71 70 66 
6 8 4 10 7 7 3 73 65 64 
2 8 10 6 9 10 4 81 75 71 70 
2 9 8 8 5 10 4 81 77 75 71 
2 6 8 8 10 6 4 81 77 74 72 
5 9 7 8 4 6 3 75 73 72 
2 7 10 7 5 7 3 81 77 71 
10 4 10 7 4 4 2 81 70 
3 10 9 7 8 7 2 81 71 
6 9 8 7 10 6 2 77 72 
9 7 8 10 10 8 2 79 74 
10 10 10 7 10 6 3 80 79 76 
9 6 9 6 7 7 1 74 
2 8 7 10 10 10 2 80 76 
4 7 3 6 9 6 4 86 82 79 78 
2 8 7 7 6 7 3 86 82 78 
8 5 9 5 9 10 3 86 82 79 
2 10 7 8 10 7 3 87 85 83 
4 10 7 10 10 8 3 87 85 83 
10 10 9 6 10 10 3 90 86 83 
6 8 7 6 5 9 3 90 86 84 
3 9 10 6 10 5 2 90 84 
10 10 9 8 10 6 1 84 
10 8 10 10 7 7 6 104 103 92 91 89 88 
4 10 6 9 5 4 4 92 90 89 88 
3 5 8 8 3 9 4 103 91 89 88 
2 7 6 10 5 5 4 104 91 89 88 
8 10 10 8 10 9 8 101 100 99 97 96 95 94 93 
6 9 10 10 6 10 4 101 97 96 94 
8 7 6 7 5 8 4 103 100 95 94 
4 4 5 6 9 4 3 98 97 96 
4 5 9 6 6 9 3 99 95 94 
10 10 3 8 7 6 2 102 98 
9 10 10 10 10 8 1 105 
4 10 10 5 8 4 2 105 391 
7 9 7 4 10 10 1 105 
4 4 7 8 6 8 1 105 
10 8 5 9 9 10 1 105 
6 8 9 8 5 10 1 105 
1 9 7 10 6 9 1 105 
3 9 5 6 5 9 1 105 
5 8 4 8 7 6 1 105 
7 6 4 8 10 6 1 105 
7 4 9 6 10 7 1 105 
0 0 0 0 0 0 1 702 
0 0 0 0 0 0 3 107 108 109 
2 6 2 3 10 4 4 119 116 112 110 
9 9 6 7 2 10 2 114 111 
9 7 9 10 8 10 2 119 111 
3 6 8 5 10 9 4 121 115 114 113 
2 7 5 9 5 5 5 121 120 117 115 113 
3 7 5 10 6 4 3 121 114 113 
1 8 4 10 6 5 4 131 123 122 118 
7 7 10 8 7 8 3 124 120 117 
4 8 3 10 4 6 4 131 126 123 122 
4 10 6 7 8 8 4 131 127 126 122 
7 10 7 8 10 8 4 131 128 126 123 
2 6 7 7 7 5 4 128 126 125 124 
5 10 10 10 9 4 4 131 128 125 123 
10 5 6 5 5 10 4 131 128 127 125 
5 10 10 8 6 10 2 131 123 
3 10 8 9 6 5 2 128 125 
5 10 10 6 8 6 2 133 127 
9 6 4 7 9 5 2 133 127 
9 3 10 6 10 6 2 133 129 
6 5 6 9 9 10 3 133 132 130 
8 5 8 7 7 10 1 129 
7 6 10 9 9 10 3 135 133 130 
3 3 10 4 10 7 2 132 130 
10 10 10 7 4 8 4 139 138 136 134 
8 10 10 9 10 9 4 139 138 136 135 
7 10 10 8 7 10 3 138 136 135 
5 10 7 8 10 4 3 139 138 136 
10 4 10 9 9 8 2 143 137 
10 6 7 1 9 6 6 156 144 143 142 141 140 
5 9 6 8 7 5 1 137 
9 7 6 8 8 7 6 156 155 144 142 141 140 
10 7 10 10 10 9 5 156 155 142 141 140 
6 10 6 5 10 7 4 144 143 141 140 
1 6 7 4 8 10 8 153 151 150 149 148 147 146 145 
9 8 7 7 6 10 5 151 150 149 148 146 
4 9 5 4 5 8 4 152 151 150 149 
1 7 10 9 7 9 4 155 153 147 146 
8 10 6 6 7 9 3 148 147 146 
10 8 7 7 10 7 2 154 152 
6 9 9 8 2 7 2 157 647 
10 7 6 8 6 5 1 157 
6 6 6 8 6 5 1 157 
1 8 10 7 7 8 1 157 
6 7 7 10 9 9 1 157 
3 4 10 9 8 6 1 157 
4 6 4 9 7 10 1 157 
7 4 10 10 6 6 1 157 
7 9 5 4 8 10 1 157 
3 10 10 8 8 9 1 157 
8 10 10 10 10 9 1 157 
0 0 0 0 0 0 1 702 
0 0 0 0 0 0 3 159 161 162 
7 4 7 3 5 4 3 164 163 160 
5 4 5 8 10 8 6 173 169 168 167 166 165 
5 8 4 7 8 9 3 168 165 163 
5 8 6 10 10 10 2 165 163 
10 9 10 9 10 8 4 173 172 167 166 
2 7 10 8 10 10 3 173 166 165 
9 10 6 6 5 8 4 177 175 172 171 
5 4 5 9 7 9 3 175 174 170 
9 10 6 10 10 8 3 177 175 171 
10 6 6 10 8 10 4 179 177 176 174 
7 10 9 10 3 10 4 181 179 177 175 
5 8 5 6 5 7 3 179 177 176 
2 7 7 8 10 5 2 179 174 
4 9 5 5 7 8 3 176 174 606 
1 10 10 5 4 4 2 177 174 
8 10 9 7 10 4 3 181 180 178 
3 8 10 6 5 6 1 176 
7 10 6 8 6 2 2 182 178 
8 9 10 10 8 9 2 184 180 
1 8 7 7 10 8 3 185 184 183 
3 10 10 8 6 9 3 185 184 183 
7 8 5 7 10 6 1 182 
5 8 8 10 8 9 3 188 185 184 
10 10 5 9 5 10 2 185 183 
5 7 6 4 10 5 4 191 189 188 187 
5 8 10 9 10 9 4 191 189 187 186 
4 6 7 6 6 8 3 191 189 186 
10 6 6 10 9 8 2 193 190 
9 6 7 6 7 4 2 193 190 
4 6 8 9 6 9 2 193 190 
4 10 7 7 10 9 1 190 
5 5 10 6 9 10 5 208 207 196 195 192 
10 10 7 8 4 6 4 208 207 196 192 
9 5 7 7 9 8 3 205 197 194 
8 6 10 6 5 7 3 207 205 194 
5 7 5 10 8 10 7 206 204 203 202 201 199 198 
5 4 7 6 8 5 6 205 204 203 200 199 198 
5 6 10 9 5 10 4 202 201 200 199 
4 6 6 10 7 10 2 200 198 
7 8 10 9 7 8 1 209 
9 10 8 8 7 7 1 209 
5 6 10 6 5 9 1 209 
2 8 10 5 7 6 1 209 
4 8 4 2 9 8 1 209 
8 5 10 5 6 7 1 209 
6 8 10 6 6 8 1 209 
5 4 10 10 10 6 1 209 
5 9 6 6 10 4 1 209 
7 9 3 9 6 4 1 209 
3 7 10 10 9 9 1 209 
0 0 0 0 0 0 1 702 
0 0 0 0 0 0 4 211 212 214 215 
6 0 0 7 0 0 2 220 213 
4 0 0 4 0 0 4 220 219 217 216 
1 0 0 9 0 0 3 218 217 216 
1 0 0 6 0 0 3 219 217 216 
1 0 0 10 0 0 3 218 216 674 
7 0 0 4 0 0 1 221 
7 0 0 9 0 0 1 221 
1 0 0 7 0 0 1 221 
2 0 0 10 0 0 1 221 
4 0 0 9 0 0 1 221 
0 0 0 0 0 0 5 222 264 276 318 360 
0 0 0 0 0 0 3 223 227 229 
5 5 5 3 3 0 4 232 226 225 224 
6 9 6 6 4 0 7 251 239 237 236 235 234 231 
2 10 10 5 10 0 3 235 231 228 
9 7 4 8 6 0 6 252 239 235 234 233 230 
1 6 7 9 6 0 4 239 237 231 230 
6 9 10 6 3 0 4 252 239 233 230 
6 10 5 8 10 0 3 236 232 231 
7 7 10 7 8 0 8 251 246 245 243 242 241 240 236 
4 5 8 6 9 0 4 243 242 238 233 
1 5 7 9 9 0 4 251 247 240 235 
3 10 6 10 4 0 6 249 247 246 245 244 240 
7 7 10 4 10 0 6 249 246 245 244 242 240 
5 6 8 4 10 0 5 249 246 245 241 238 
9 5 4 8 6 0 3 249 247 238 
1 8 7 9 9 0 4 254 252 249 241 
3 8 10 10 9 0 3 257 248 244 
10 4 9 6 6 0 2 249 247 
10 6 4 9 8 0 3 254 253 250 
5 10 10 7 7 0 2 253 248 
9 6 9 7 9 0 2 257 248 
3 9 8 7 10 0 2 253 248 
3 9 9 6 10 0 4 256 255 254 253 
9 7 7 10 10 0 4 256 255 254 253 
1 9 8 5 9 0 3 262 253 250 
8 8 6 8 8 0 2 248 389 
10 10 8 6 7 0 2 262 250 
10 9 9 10 7 0 2 257 250 
5 9 9 6 9 0 3 261 256 255 
9 6 9 8 8 0 2 259 254 
3 7 5 9 5 0 2 261 255 
5 9 4 6 8 0 4 261 260 259 258 
5 9 10 10 8 0 4 262 261 260 258 
7 7 9 10 4 0 3 260 259 258 
5 9 6 10 5 0 3 260 259 258 
10 9 9 6 8 0 2 259 258 
1 7 8 8 6 0 1 263 
4 4 4 7 5 0 1 263 
5 5 5 9 10 0 1 263 
4 7 10 10 8 0 1 263 
9 8 8 8 9 0 1 263 
0 0 0 0 0 0 1 702 
0 0 0 0 0 0 4 265 266 267 269 
3 0 0 0 0 2 4 274 273 270 268 
8 0 0 0 0 10 3 274 273 268 
3 0 0 0 0 10 1 268 
7 0 0 0 0 7 2 272 271 
8 0 0 0 0 10 2 273 272 
2 0 0 0 0 10 1 271 
1 0 0 0 0 9 1 275 
7 0 0 0 0 6 1 275 
2 0 0 0 0 6 1 275 
9 0 0 0 0 5 1 275 
0 0 0 0 0 0 5 402 434 466 478 510 
0 0 0 0 0 0 3 277 278 282 
7 0 4 5 3 5 4 284 281 280 279 
8 0 8 6 8 5 4 291 288 286 283 
1 0 4 4 5 9 6 303 291 289 288 287 286 
3 0 9 10 8 10 5 298 291 287 286 285 
5 0 7 6 6 6 3 291 286 283 
5 0 7 3 4 10 3 289 286 284 
6 0 3 6 9 6 4 298 292 290 285 
8 0 9 8 10 8 7 303 301 300 298 297 292 291 
5 0 9 10 10 7 5 303 301 299 294 289 
6 0 7 9 10 7 4 301 299 293 290 
4 0 4 8 5 9 7 300 299 297 296 294 293 292 
6 0 10 10 10 4 6 302 299 298 297 296 292 
7 0 10 5 10 10 6 304 300 297 296 295 293 
2 0 5 8 10 4 6 304 300 297 296 295 294 
9 0 4 10 9 10 5 299 296 295 294 293 
7 0 8 8 4 4 3 307 304 295 
7 0 10 8 4 7 3 309 305 302 
8 0 9 9 5 9 3 309 305 302 
8 0 9 7 7 4 3 309 308 306 
3 0 8 10 9 10 3 308 307 306 
5 0 9 10 8 6 3 308 307 306 
5 0 9 7 7 10 3 308 307 306 
9 0 8 6 8 10 2 307 305 
4 0 8 10 9 7 2 309 305 
2 0 4 8 9 10 2 307 305 
1 0 7 10 6 9 4 311 310 308 307 
6 0 9 5 8 10 4 311 310 308 307 
2 0 8 7 9 8 1 305 
3 0 7 10 7 9 2 316 306 
6 0 8 5 7 10 3 315 311 310 
1 0 8 10 10 9 4 315 314 313 312 
10 0 10 6 8 10 4 316 315 313 312 
7 0 10 10 6 5 1 310 
10 0 4 9 7 9 3 314 313 312 
1 0 7 3 8 7 3 314 313 312 
5 0 10 4 7 5 1 317 
10 0 9 10 7 5 1 317 
10 0 10 2 5 5 1 317 
8 0 4 10 9 5 1 317 
3 0 7 8 9 7 1 317 
0 0 0 0 0 0 1 702 
0 0 0 0 0 0 6 319 323 324 326 331 332 
3 3 5 4 6 0 3 327 322 320 
2 10 5 7 7 0 4 341 335 328 321 
10 6 8 7 5 0 8 358 351 344 342 338 336 333 325 
3 6 6 2 2 0 9 358 346 344 343 342 336 334 333 329 
8 10 10 7 9 0 4 346 338 330 327 
9 10 6 10 7 0 8 351 345 344 342 337 335 333 330 
10 9 5 7 4 0 6 357 346 345 343 337 330 
1 4 9 10 4 0 6 351 348 344 338 335 334 
2 10 9 7 10 0 5 348 343 341 335 333 
2 7 9 7 9 0 5 357 351 350 345 334 
6 8 5 10 10 0 3 357 356 335 
9 7 6 5 8 0 2 350 334 
5 8 10 9 7 0 2 342 339 
10 10 9 9 10 0 4 353 351 347 345 
1 10 10 10 7 0 3 357 356 340 
1 6 8 10 8 0 2 356 339 
7 10 8 9 10 0 2 350 339 
10 10 9 8 6 0 2 357 339 
2 9 7 10 10 0 2 356 340 
9 6 10 6 10 0 4 354 350 349 347 
9 7 6 6 10 0 1 340 
4 4 3 6 9 0 3 354 349 347 
5 8 9 8 8 0 2 347 342 
10 8 10 10 6 0 3 355 352 350 
6 10 8 10 6 0 3 356 354 350 
10 7 5 4 8 0 3 357 355 352 
6 4 9 6 3 0 1 348 
3 10 10 6 4 0 1 348 
4 5 8 7 9 0 2 355 352 
5 6 7 9 10 0 2 356 354 
9 7 7 7 7 0 1 353 
9 9 10 10 10 0 1 353 
2 8 3 6 5 0 1 352 
9 2 10 6 8 0 1 359 
4 6 10 10 6 0 1 359 
1 10 7 7 10 0 1 359 
6 8 5 7 6 0 1 359 
2 5 8 8 7 0 1 359 
10 9 4 8 10 0 1 359 
6 8 7 5 9 0 1 359 
0 0 0 0 0 0 1 702 
0 0 0 0 0 0 5 361 364 366 367 371 
5 5 3 6 4 0 3 369 365 362 
4 8 6 7 7 0 2 373 363 
3 3 8 7 5 0 7 400 386 378 376 374 370 368 
4 7 10 7 7 0 6 400 386 378 376 374 368 
8 4 7 7 10 0 9 400 389 386 383 380 377 376 375 374 
3 7 5 6 5 0 8 389 388 387 385 381 380 372 369 
1 6 10 7 6 0 6 389 381 380 375 374 370 
5 10 10 8 8 0 8 389 388 387 385 383 381 380 372 
9 8 8 10 10 0 3 383 376 373 
1 9 10 5 10 0 4 388 387 385 379 
7 3 9 10 6 0 4 386 385 381 376 
4 10 3 7 10 0 4 394 392 390 379 
7 10 4 5 10 0 3 390 386 378 
4 2 9 5 8 0 2 388 379 
4 6 10 6 7 0 2 394 378 
8 10 9 10 3 0 3 394 390 382 
6 7 8 10 5 0 3 393 387 385 
2 7 9 8 7 0 3 399 392 382 
3 6 6 9 10 0 2 399 382 
1 8 9 6 7 0 2 399 382 
2 10 8 6 10 0 2 392 382 
8 5 9 10 4 0 1 384 
1 10 6 10 7 0 4 399 398 397 392 
3 7 8 10 8 0 3 398 393 391 
3 7 6 6 10 0 3 399 392 391 
8 10 9 2 5 0 3 393 392 391 
7 7 10 8 10 0 2 397 390 
7 9 4 4 10 0 3 395 394 393 
4 6 7 6 5 0 1 390 
7 3 7 10 8 0 4 399 398 396 395 
6 10 9 10 9 0 2 397 395 
8 10 10 10 7 0 2 396 395 
4 10 1 9 5 0 1 396 
9 10 10 10 6 0 1 397 
7 7 6 10 5 0 1 401 
1 5 10 6 9 0 1 401 
6 10 6 7 9 0 1 401 
8 10 10 7 10 0 1 401 
4 8 5 9 10 0 1 401 
1 10 6 4 8 0 1 401 
0 0 0 0 0 0 1 702 
0 0 0 0 0 0 6 403 404 405 406 408 432 
6 3 1 0 2 0 4 416 410 409 407 
4 8 5 0 10 0 5 431 422 414 411 410 
7 8 5 0 8 0 5 422 421 416 414 411 
7 10 10 0 7 0 5 427 423 421 414 411 
9 7 6 0 3 0 4 427 422 421 411 
7 7 8 0 6 0 5 430 426 417 416 413 
5 6 9 0 8 0 3 426 413 412 
6 8 6 0 9 0 5 427 426 421 420 417 
6 8 8 0 10 0 2 426 412 
6 9 9 0 10 0 3 429 420 417 
6 8 10 0 4 0 3 427 420 418 
10 8 5 0 5 0 2 428 415 
10 8 5 0 10 0 1 417 
2 8 7 0 6 0 2 427 419 
6 5 10 0 3 0 1 418 
1 10 10 0 5 0 1 419 
10 5 10 0 9 0 1 424 
10 9 6 0 7 0 1 425 
1 7 7 0 7 0 1 428 
6 6 5 0 10 0 1 428 
3 9 9 0 10 0 1 426 
9 10 8 0 10 0 1 433 
2 10 8 0 8 0 1 433 
7 4 8 0 5 0 1 433 
3 4 8 0 10 0 1 433 
5 10 10 0 7 0 1 433 
10 10 10 0 10 0 1 433 
4 9 10 0 10 0 1 433 
6 4 6 0 7 0 1 433 
9 7 6 0 9 0 1 433 
0 0 0 0 0 0 1 702 
0 0 0 0 0 0 6 435 436 437 438 439 451 
3 5 4 3 0 0 4 455 442 441 440 
1 9 7 4 0 0 5 455 448 446 441 440 
5 9 4 4 0 0 3 446 441 440 
5 10 5 9 0 0 3 450 442 440 
8 4 7 10 0 0 5 454 453 450 447 442 
7 6 5 8 0 0 3 447 444 443 
3 8 10 10 0 0 2 450 445 
2 7 10 8 0 0 2 448 446 
10 6 8 9 0 0 2 453 449 
6 10 10 6 0 0 2 453 449 
7 7 8 6 0 0 2 453 449 
9 6 8 6 0 0 1 449 
6 10 8 2 0 0 1 449 
10 10 7 6 0 0 1 449 
4 8 9 10 0 0 6 464 463 462 459 458 452 
4 8 9 10 0 0 2 462 452 
8 9 10 7 0 0 3 464 458 457 
10 10 8 10 0 0 2 460 456 
4 8 8 10 0 0 3 463 462 460 
1 2 10 10 0 0 3 463 462 460 
10 4 7 9 0 0 2 462 461 
7 10 7 6 0 0 1 457 
8 5 8 5 0 0 1 461 
5 5 7 6 0 0 1 460 
1 10 5 9 0 0 1 460 
7 6 7 8 0 0 1 465 
1 10 3 5 0 0 1 465 
6 6 10 9 0 0 1 465 
5 10 7 10 0 0 1 465 
8 7 9 10 0 0 1 465 
0 0 0 0 0 0 1 702 
0 0 0 0 0 0 4 467 468 470 476 
8 0 3 0 0 0 4 474 473 472 471 
10 0 6 0 0 0 2 475 469 
4 0 8 0 0 0 2 472 471 
7 0 7 0 0 0 2 474 473 
10 0 8 0 0 0 1 477 
3 0 7 0 0 0 1 477 
2 0 10 0 0 0 1 477 
4 0 7 0 0 0 1 477 
1 0 10 0 0 0 1 477 
8 0 9 0 0 0 1 477 
0 0 0 0 0 0 5 542 564 576 598 620 
0 0 0 0 0 0 6 479 480 481 482 485 508 
9 0 2 0 6 4 4 491 486 484 483 
7 0 6 0 7 9 6 506 501 497 496 490 487 
6 0 5 0 8 5 6 507 501 498 497 488 486 
3 0 7 0 8 10 5 497 496 491 490 487 
3 0 7 0 6 2 4 501 498 496 487 
8 0 7 0 7 8 3 502 489 488 
2 0 7 0 10 6 4 505 492 491 489 
9 0 4 0 2 5 4 502 496 495 492 
6 0 8 0 9 10 2 502 488 
10 0 7 0 7 7 3 504 495 492 
5 0 9 0 5 8 3 501 495 494 
8 0 8 0 9 10 1 492 
5 0 10 0 10 6 2 501 494 
9 0 8 0 7 10 1 493 
10 0 7 0 10 6 1 494 
9 0 7 0 7 6 1 499 
4 0 6 0 5 7 1 500 
10 0 10 0 4 4 1 503 
3 0 9 0 5 6 1 499 
9 0 9 0 10 10 1 503 
1 0 10 0 9 9 1 509 
4 0 5 0 10 10 1 509 
6 0 8 0 5 8 1 509 
10 0 7 0 8 10 1 509 
2 0 10 0 10 4 1 509 
1 0 10 0 10 10 1 509 
5 0 10 0 10 10 1 509 
3 0 6 0 5 6 1 509 
8 0 7 0 9 9 1 509 
8 0 9 0 7 10 1 509 
0 0 0 0 0 0 1 702 
0 0 0 0 0 0 6 511 512 513 514 515 516 
3 0 4 2 3 0 3 519 518 517 
9 0 10 3 7 0 3 528 519 517 
10 0 8 7 4 0 3 528 519 517 
2 0 9 4 10 0 3 522 521 518 
3 0 6 9 8 0 3 522 521 518 
8 0 8 10 8 0 2 518 517 
9 0 5 8 9 0 5 526 524 523 521 520 
10 0 7 9 8 0 5 528 526 524 523 520 
3 0 10 9 6 0 2 525 522 
9 0 10 7 9 0 3 530 529 527 
2 0 6 7 8 0 3 530 529 527 
3 0 6 5 8 0 3 530 529 527 
3 0 7 6 7 0 2 530 527 
4 0 10 9 9 0 2 530 527 
3 0 9 8 8 0 2 530 527 
10 0 6 10 10 0 1 527 
1 0 5 8 8 0 3 536 532 531 
2 0 7 9 10 0 2 531 529 
4 0 10 10 5 0 4 540 536 534 533 
10 0 8 6 10 0 3 536 534 531 
3 0 10 5 5 0 2 535 533 
7 0 4 8 4 0 2 540 534 
10 0 9 10 7 0 2 539 537 
1 0 4 10 5 0 1 535 
5 0 6 7 10 0 2 539 538 
6 0 10 8 6 0 2 539 538 
6 0 8 5 10 0 1 538 
4 0 6 9 7 0 1 541 
5 0 7 10 10 0 1 541 
2 0 10 7 6 0 1 541 
0 0 0 0 0 0 1 702 
0 0 0 0 0 0 5 543 544 546 547 549 
4 0 0 1 5 0 2 553 545 
5 0 0 7 10 0 3 554 551 548 
5 0 0 9 8 0 4 562 555 552 550 
8 0 0 10 10 0 3 554 553 552 
10 0 0 8 10 0 2 553 550 
6 0 0 7 6 0 4 562 561 560 552 
6 0 0 8 5 0 4 562 559 555 554 
1 0 0 4 3 0 4 560 559 557 554 
7 0 0 8 8 0 3 560 555 552 
4 0 0 5 10 0 4 559 558 557 556 
10 0 0 10 10 0 2 560 555 
10 0 0 7 7 0 3 561 558 556 
1 0 0 8 9 0 2 557 556 
1 0 0 7 7 0 1 563 
1 0 0 8 4 0 1 563 
4 0 0 9 5 0 1 563 
5 0 0 10 5 0 1 563 
9 0 0 7 10 0 1 563 
7 0 0 10 9 0 1 563 
5 0 0 7 9 0 1 563 
0 0 0 0 0 0 1 702 
0 0 0 0 0 0 5 565 566 568 573 574 
8 0 0 5 0 0 2 571 567 
7 0 0 7 0 0 3 571 570 569 
3 0 0 5 0 0 2 570 569 
5 0 0 10 0 0 2 572 569 
9 0 0 10 0 0 1 575 
5 0 0 4 0 0 1 575 
5 0 0 7 0 0 1 575 
4 0 0 10 0 0 1 575 
9 0 0 10 0 0 1 575 
3 0 0 7 0 0 1 575 
0 0 0 0 0 0 5 642 654 666 678 690 
0 0 0 0 0 0 12 577 579 580 583 584 590 591 592 593 594 595 596 
1 0 0 4 0 5 2 589 578 
3 0 0 8 0 7 2 586 581 
8 0 0 7 0 6 2 588 586 
10 0 0 10 0 6 2 586 585 
9 0 0 10 0 8 1 582 
4 0 0 5 0 8 1 585 
5 0 0 5 0 5 1 587 
4 0 0 4 0 3 1 585 
5 0 0 10 0 10 1 597 
2 0 0 10 0 8 1 597 
1 0 0 10 0 8 1 597 
8 0 0 10 0 7 1 597 
2 0 0 6 0 10 1 597 
5 0 0 3 0 7 1 597 
2 0 0 10 0 8 1 597 
7 0 0 8 0 10 1 597 
10 0 0 6 0 8 1 597 
10 0 0 9 0 8 1 597 
2 0 0 8 0 10 1 597 
2 0 0 7 0 8 1 597 
0 0 0 0 0 0 1 702 
0 0 0 0 0 0 8 599 600 601 602 603 606 609 618 
3 0 0 3 8 0 5 617 616 615 611 607 
8 0 0 10 9 0 3 615 614 604 
4 0 0 10 6 0 4 615 614 611 608 
6 0 0 9 7 0 3 614 611 605 
9 0 0 4 7 0 3 615 614 607 
4 0 0 7 9 0 4 616 613 611 610 
9 0 0 7 10 0 1 607 
5 0 0 7 10 0 3 617 615 614 
1 0 0 9 5 0 2 613 610 
8 0 0 9 10 0 2 613 610 
7 0 0 10 10 0 2 613 610 
6 0 0 5 7 0 1 612 
8 0 0 6 9 0 1 612 
7 0 0 7 6 0 1 619 
6 0 0 5 8 0 1 619 
4 0 0 7 7 0 1 619 
6 0 0 10 4 0 1 619 
5 0 0 7 10 0 1 619 
8 0 0 9 4 0 1 619 
2 0 0 9 4 0 1 619 
0 0 0 0 0 0 1 702 
0 0 0 0 0 0 8 621 622 624 625 626 638 639 640 
2 0 7 0 0 3 3 633 628 623 
2 0 1 0 0 8 7 637 635 634 633 632 629 628 
8 0 10 0 0 2 4 634 632 631 627 
9 0 10 0 0 6 3 636 635 628 
8 0 10 0 0 10 3 632 631 628 
5 0 5 0 0 9 2 633 631 
10 0 9 0 0 8 1 629 
2 0 7 0 0 3 1 630 
4 0 2 0 0 10 1 630 
4 0 9 0 0 10 1 641 
8 0 7 0 0 10 1 641 
9 0 10 0 0 9 1 641 
10 0 5 0 0 10 1 641 
3 0 6 0 0 6 1 641 
7 0 9 0 0 10 1 641 
2 0 7 0 0 6 1 641 
6 0 9 0 0 9 1 641 
10 0 9 0 0 6 1 641 
6 0 9 0 0 7 1 641 
6 0 9 0 0 8 1 641 
0 0 0 0 0 0 1 702 
0 0 0 0 0 0 2 643 644 
5 3 0 0 0 0 5 652 651 650 647 645 
2 8 0 0 0 0 3 650 646 645 
7 6 0 0 0 0 2 649 648 
6 10 0 0 0 0 1 649 
4 10 0 0 0 0 1 648 
2 9 0 0 0 0 1 653 
10 7 0 0 0 0 1 653 
4 5 0 0 0 0 1 653 
5 9 0 0 0 0 1 653 
9 8 0 0 0 0 1 653 
0 0 0 0 0 0 1 702 
0 0 0 0 0 0 4 655 656 658 659 
10 0 0 0 4 0 3 663 660 657 
2 0 0 0 7 0 3 664 662 660 
6 0 0 0 7 0 3 664 662 661 
6 0 0 0 9 0 3 663 662 661 
8 0 0 0 7 0 2 663 661 
5 0 0 0 7 0 1 661 
6 0 0 0 6 0 1 665 
3 0 0 0 8 0 1 665 
10 0 0 0 10 0 1 665 
2 0 0 0 10 0 1 665 
0 0 0 0 0 0 1 702 
0 0 0 0 0 0 5 667 668 669 670 671 
5 0 0 0 3 0 4 676 674 673 672 
2 0 0 0 6 0 3 676 674 672 
10 0 0 0 7 0 3 676 673 672 
4 0 0 0 5 0 2 676 672 
6 0 0 0 6 0 2 673 672 
8 0 0 0 10 0 1 675 
1 0 0 0 10 0 1 675 
3 0 0 0 10 0 1 675 
2 0 0 0 8 0 1 677 
8 0 0 0 10 0 1 677 
0 0 0 0 0 0 1 702 
0 0 0 0 0 0 4 679 681 687 688 
4 1 0 0 0 0 4 686 685 684 680 
10 10 0 0 0 0 1 682 
5 8 0 0 0 0 1 683 
8 6 0 0 0 0 1 689 
7 10 0 0 0 0 1 689 
2 9 0 0 0 0 1 689 
7 10 0 0 0 0 1 689 
2 8 0 0 0 0 1 689 
5 8 0 0 0 0 1 689 
1 5 0 0 0 0 1 689 
0 0 0 0 0 0 1 702 
0 0 0 0 0 0 6 691 692 693 694 695 698 
5 0 0 4 0 0 2 700 696 
6 0 0 6 0 0 2 697 696 
3 0 0 5 0 0 2 700 699 
5 0 0 8 0 0 1 697 
6 0 0 10 0 0 1 696 
10 0 0 7 0 0 1 699 
2 0 0 10 0 0 1 699 
5 0 0 5 0 0 1 699 
1 0 0 10 0 0 1 701 
10 0 0 10 0 0 1 701 
0 0 0 0 0 0 1 702 
0 0 0 0 0 0 0 
